
(set-logic ALL) 

(declare-datatype MyList ((Nil) (Cons (head Real) (tail MyList)) )) 
(declare-fun l0 () MyList) 
(declare-fun l1 () MyList) 
(declare-fun l2 () MyList) 
(declare-fun l3 () MyList) 
(declare-fun i0 () Real) 
(declare-fun i1 () Real) 
(assert (is-Nil l0) )
(assert (not (is-Nil Nil)) )
(assert (or (= l1 Nil) (= l1 Nil)) )
(assert (= l2 Nil) )
(assert (is-Cons l0) )
(assert (or (is-Cons Nil) (= l1 l2) (= l3 Nil) (= l0 Nil)) )
(assert (is-Cons Nil) )
(assert (or (is-Cons Nil) (is-Nil l1)) )
(check-sat)
